\* Bartender Problem *\
Maximize
OBJ: 6 Cocktails_Daiquiri + 5 Cocktails_Kamikaze + 7 Cocktails_LongIsland
Subject To
cointreau: 30 Cocktails_Daiquiri + 30 Cocktails_Kamikaze
 + 20 Cocktails_LongIsland <= 7000
gin: 20 Cocktails_LongIsland <= 3000
vodka: 40 Cocktails_Kamikaze + 20 Cocktails_LongIsland <= 6000
whiteRum: 50 Cocktails_Daiquiri + 20 Cocktails_LongIsland <= 5000
End
